(set-info :source |
 Generated by Alive 0.1
 More info in N. P. Lopes, D. Menendez, S. Nagarakatte, J. Regehr.
 Provably Correct Peephole Optimizations with Alive. In PLDI'15.
|)

(set-info :status unknown)
(declare-fun %Y () (_ BitVec 17))
(assert
 (let ((?x447189 ((_ zero_extend 18) %Y)))
 (let (($x447186 (and (distinct ?x447189 (_ bv0 35)) true)))
 (and $x447186 false))))
(check-sat)
